0 99 
1 99 
2 95 
3 92 
4 92 
5 92 
6 91 
7 90 
8 88 
9 87 
10 84 
11 83 
12 83 
13 85 
14 86 
15 85 
16 82 
17 79 
18 78 
19 77 
20 80 
21 80 
22 78 
23 77 
24 72 
25 71 
26 68 
27 64 
28 64 
29 62 
30 56 
31 53 
32 52 
33 50 
34 49 
35 49 
36 46 
37 45 
38 42 
39 39 
40 39 
41 39 
42 39 
43 38 
44 36 
45 39 
46 38 
47 36 
48 35 
49 28 
50 33 
51 31 
52 28 
53 27 
54 23 
55 20 
56 19 
57 16 
58 13 
59 10 
60 9 
61 10 
62 9 
63 8 
64 6 
65 7 
66 4 
67 3 
68 3 
69 1 
70 2 
71 2 
72 1 
73 0 
74 0 

